70 700
1 23 16 47 37 58 50 51 56 65 64 11 48 67 54 62 33 60 52 10 5 53 4 2 18 42 6 41 43 17 12 34 21 9 40 61 39 25 45 46 27 68 44 30 20 14 28 49 55 26 8 3 32 7 19 24 15 57 63 66 22 59 38 69 31 35 70 13 29 36 
